--- Job correction 2.gms Start 07/06/23 23:20:47 43.1.0 203303bb WEX-WEI x86 64bit/MS Windows
--- Applying:
    C:\GAMS\43\gmsprmNT.txt
--- GAMS Parameters defined
    Input "C:\Users\Remi\OneDrive - UCB-O365\Documents\lecture notes\MSc\Thesis\GAMS\correction 2.gms"
    PageSize 0
    ScrDir "C:\Users\Remi\OneDrive - UCB-O365\Documents\lecture notes\MSc\Thesis\GAMS\225c\"
    SysDir C:\GAMS\43\
    LogOption 3
    ErrMsg 1
    ErrorLog 99
    IDE 1
    LstTitleLeftAligned 1
Licensee: GAMS Community License for Remi Akinwonmi      G230220|0002AO-GEN
          University of Colorado at Boulder, Dept. of Mechanical EngiCL5252
          C:\GAMS\43\gamslice.txt
          Remi Akinwonmi, reak4480@colorado.edu                            
          Community license for demonstration and instructional purposes only
Processor information: 1 socket(s), 4 core(s), and 4 thread(s) available
GAMS 43.1.0   Copyright (C) 1987-2023 GAMS Development. All rights reserved
--- Starting compilation
--- correction 2.gms(25) 3 Mb
--- . Data_120.csv(121) 3 Mb
--- correction 2.gms(78) 3 Mb
--- $echo File C:\Users\Remi\OneDrive - UCB-O365\Documents\lecture notes\MSc\Thesis\GAMS\cplex.opt
--- correction 2.gms(107) 3 Mb
--- Starting execution: elapsed 0:00:00.018
--- correction 2.gms(204) 4 Mb
--- Generating MIP model energy_storage
--- correction 2.gms(206) 4 Mb
---   1,561 rows  1,441 columns  3,276 non-zeroes
---   240 discrete-columns
--- Range statistics (absolute non-zero finite values)
--- RHS       [min, max] : [ 1.000E+00, 5.000E+03] - Zero values observed as well
--- Bound     [min, max] : [ 1.000E+00, 1.000E+00] - Zero values observed as well
--- Matrix    [min, max] : [ 1.100E-01, 5.000E+02]
--- Executing CPLEX (Solvelink=2): elapsed 0:00:00.071

IBM ILOG CPLEX   43.1.0 203303bb Apr 27, 2023          WEI x86 64bit/MS Window

--- *** This solver runs with a community license. No commercial use.

Reading parameter(s) from "C:\Users\Remi\OneDrive - UCB-O365\Documents\lecture notes\MSc\Thesis\GAMS\cplex.opt"
>>  iis 1
Finished reading from "C:\Users\Remi\OneDrive - UCB-O365\Documents\lecture notes\MSc\Thesis\GAMS\cplex.opt"

--- GMO setup time: 0.00s
--- Space for names approximately 0.05 Mb
--- Use option 'names no' to turn use of names off
--- GMO memory 0.84 Mb (peak 0.85 Mb)
--- Dictionary memory 0.00 Mb
--- Cplex 22.1.1.0 link memory 0.05 Mb (peak 0.16 Mb)
--- Starting Cplex

Version identifier: 22.1.1.0 | 2022-11-27 | 9160aff4d
CPXPARAM_Advance                                 0
CPXPARAM_Threads                                 1
CPXPARAM_MIP_Display                             4
CPXPARAM_MIP_Pool_Capacity                       0
CPXPARAM_MIP_Tolerances_AbsMIPGap                0
Generic callback                                 0x50
Tried aggregator 2 times.
MIP Presolve eliminated 1121 rows and 841 columns.
MIP Presolve added 42 rows and 0 columns.
Aggregator did 125 substitutions.
Reduced MIP has 356 rows, 475 columns, and 951 nonzeros.
Reduced MIP has 120 binaries, 0 generals, 0 SOSs, and 0 indicators.
Presolve time = 0.02 sec. (1.86 ticks)
Found incumbent of value 0.000000 after 0.03 sec. (2.30 ticks)
Probing time = 0.00 sec. (0.04 ticks)
Tried aggregator 1 time.
Detecting symmetries...
Reduced MIP has 356 rows, 475 columns, and 951 nonzeros.
Reduced MIP has 120 binaries, 0 generals, 0 SOSs, and 0 indicators.
Presolve time = 0.00 sec. (0.65 ticks)
Probing time = 0.00 sec. (0.04 ticks)
MIP emphasis: balance optimality and feasibility.
MIP search method: dynamic search.
Parallel mode: none, using 1 thread.
Tried aggregator 1 time.
Aggregator did 120 substitutions.
Reduced LP has 236 rows, 355 columns, and 711 nonzeros.
Presolve time = 0.00 sec. (0.27 ticks)
Initializing dual steep norms . . .

Iteration log . . .
Iteration:     1   Dual objective     =         74852.446154
Initializing dual steep norms . . .
Root relaxation solution time = 0.02 sec. (0.93 ticks)

        Nodes                                         Cuts/
   Node  Left     Objective  IInf  Best Integer    Best Bound    ItCnt     Gap

*     0+    0                            0.0000    77038.0000              --- 
Found incumbent of value 0.000000 after 0.05 sec. (4.29 ticks)
      0     0    67242.6462     1        0.0000    67242.6462       26     --- 
*     0+    0                        67242.6462    67242.6462             0.00%
Found incumbent of value 67242.646154 after 0.05 sec. (4.84 ticks)
      0     0        cutoff          67242.6462    67242.6462       26    0.00%
Elapsed time = 0.05 sec. (4.84 ticks, tree = 0.01 MB)

Root node processing (before b&c):
  Real time             =    0.06 sec. (4.86 ticks)
Sequential b&c:
  Real time             =    0.00 sec. (0.00 ticks)
                          ------------
Total (root+branch&cut) =    0.06 sec. (4.86 ticks)

--- MIP status (101): integer optimal solution.
--- Cplex Time: 0.06sec (det. 4.87 ticks)

--- Returning a primal only solution to GAMS (marginals all set to NA).
--- Fixing integer variables and solving final LP...

Version identifier: 22.1.1.0 | 2022-11-27 | 9160aff4d
CPXPARAM_Advance                                 2
CPXPARAM_Threads                                 1
CPXPARAM_MIP_Display                             4
CPXPARAM_MIP_Pool_Capacity                       0
CPXPARAM_MIP_Tolerances_AbsMIPGap                0
Tried aggregator 1 time.
LP Presolve eliminated 1321 rows and 1169 columns.
Aggregator did 226 substitutions.
Reduced LP has 13 rows, 46 columns, and 58 nonzeros.
Presolve time = 0.00 sec. (0.83 ticks)
Initializing dual steep norms . . .

Iteration log . . .
Iteration:     1   Dual infeasibility =             0.764400
Iteration:     3   Dual objective     =         74763.000000

--- Fixed MIP status (1): optimal.
--- Cplex Time: 0.00sec (det. 1.40 ticks)


Proven optimal solution
MIP Solution:        67242.646154    (26 iterations, 0 nodes)
Final Solve:         67242.646154    (11 iterations)

Best possible:       67242.646154
Absolute gap:            0.000000
Relative gap:            0.000000

--- Reading solution for model energy_storage
--- Executing after solve: elapsed 0:00:00.435
--- correction 2.gms(216) 4 Mb
--- GDX File (execute_unload) C:\Users\Remi\OneDrive - UCB-O365\Documents\lecture notes\MSc\Thesis\GAMS\result2.gdx
--- correction 2.gms(217) 4 Mb

GDXXRW           43.1.0 203303bb Apr 27, 2023          WEI x86 64bit/MS Window
Input file : C:\Users\Remi\OneDrive - UCB-O365\Documents\lecture notes\MSc\Thesis\GAMS\result2.gdx
Output file: C:\Users\Remi\OneDrive - UCB-O365\Documents\lecture notes\MSc\Thesis\GAMS\result2.xlsx
Total time = 9032 Ms
--- correction 2.gms(218) 4 Mb

GDXXRW           43.1.0 203303bb Apr 27, 2023          WEI x86 64bit/MS Window
Input file : C:\Users\Remi\OneDrive - UCB-O365\Documents\lecture notes\MSc\Thesis\GAMS\result2.gdx
Output file: C:\Users\Remi\OneDrive - UCB-O365\Documents\lecture notes\MSc\Thesis\GAMS\result2.xlsx
Total time = 3984 Ms
--- correction 2.gms(219) 4 Mb

GDXXRW           43.1.0 203303bb Apr 27, 2023          WEI x86 64bit/MS Window
Input file : C:\Users\Remi\OneDrive - UCB-O365\Documents\lecture notes\MSc\Thesis\GAMS\result2.gdx
Output file: C:\Users\Remi\OneDrive - UCB-O365\Documents\lecture notes\MSc\Thesis\GAMS\result2.xlsx
Total time = 2812 Ms
--- correction 2.gms(220) 4 Mb

GDXXRW           43.1.0 203303bb Apr 27, 2023          WEI x86 64bit/MS Window
Input file : C:\Users\Remi\OneDrive - UCB-O365\Documents\lecture notes\MSc\Thesis\GAMS\result2.gdx
Output file: C:\Users\Remi\OneDrive - UCB-O365\Documents\lecture notes\MSc\Thesis\GAMS\result2.xlsx
Total time = 2609 Ms
--- correction 2.gms(221) 4 Mb

GDXXRW           43.1.0 203303bb Apr 27, 2023          WEI x86 64bit/MS Window
Input file : C:\Users\Remi\OneDrive - UCB-O365\Documents\lecture notes\MSc\Thesis\GAMS\result2.gdx
Output file: C:\Users\Remi\OneDrive - UCB-O365\Documents\lecture notes\MSc\Thesis\GAMS\result2.xlsx
Total time = 2625 Ms
--- correction 2.gms(222) 4 Mb

GDXXRW           43.1.0 203303bb Apr 27, 2023          WEI x86 64bit/MS Window
Input file : C:\Users\Remi\OneDrive - UCB-O365\Documents\lecture notes\MSc\Thesis\GAMS\result2.gdx
Output file: C:\Users\Remi\OneDrive - UCB-O365\Documents\lecture notes\MSc\Thesis\GAMS\result2.xlsx
Total time = 2578 Ms
--- correction 2.gms(223) 4 Mb

GDXXRW           43.1.0 203303bb Apr 27, 2023          WEI x86 64bit/MS Window
Input file : C:\Users\Remi\OneDrive - UCB-O365\Documents\lecture notes\MSc\Thesis\GAMS\result2.gdx
Output file: C:\Users\Remi\OneDrive - UCB-O365\Documents\lecture notes\MSc\Thesis\GAMS\result2.xlsx
Total time = 2391 Ms
--- correction 2.gms(224) 4 Mb

GDXXRW           43.1.0 203303bb Apr 27, 2023          WEI x86 64bit/MS Window
Input file : C:\Users\Remi\OneDrive - UCB-O365\Documents\lecture notes\MSc\Thesis\GAMS\result2.gdx
Output file: C:\Users\Remi\OneDrive - UCB-O365\Documents\lecture notes\MSc\Thesis\GAMS\result2.xlsx
Total time = 2422 Ms
--- correction 2.gms(225) 4 Mb

GDXXRW           43.1.0 203303bb Apr 27, 2023          WEI x86 64bit/MS Window
Input file : C:\Users\Remi\OneDrive - UCB-O365\Documents\lecture notes\MSc\Thesis\GAMS\result2.gdx
Output file: C:\Users\Remi\OneDrive - UCB-O365\Documents\lecture notes\MSc\Thesis\GAMS\result2.xlsx
Total time = 2266 Ms
--- correction 2.gms(226) 4 Mb

GDXXRW           43.1.0 203303bb Apr 27, 2023          WEI x86 64bit/MS Window
Input file : C:\Users\Remi\OneDrive - UCB-O365\Documents\lecture notes\MSc\Thesis\GAMS\result2.gdx
Output file: C:\Users\Remi\OneDrive - UCB-O365\Documents\lecture notes\MSc\Thesis\GAMS\result2.xlsx
Total time = 2625 Ms
*** Status: Normal completion
--- Job correction 2.gms Stop 07/06/23 23:21:22 elapsed 0:00:34.878
